experiment/data/lkh-res/Vrp-Set-B-n67/Vrp-Set-B-n67-lkh/0.lkh1.vrp
NAME : 0
COMMENT : CVRP Instance
TYPE : CVRP
DIMENSION : 67
EDGE_WEIGHT_TYPE : EUC_2D
CAPACITY : 100
NODE_COORD_SECTION
1	5800	9000
2	500	6600
3	3400	9800
4	9300	1700
5	2300	6700
6	7100	9100
7	2000	3900
8	2000	8600
9	700	9900
10	7200	7800
11	2700	9000
12	1400	7200
13	7200	10100
14	7200	9600
15	1900	7300
16	7600	9500
17	3000	9200
18	3000	8700
19	4000	10400
20	700	7300
21	700	7600
22	7900	8600
23	8200	10500
24	1200	10400
25	2100	9300
26	7700	8500
27	3700	10100
28	2800	9100
29	7200	9500
30	2200	9200
31	9800	1800
32	4200	10700
33	1600	10100
34	4100	10000
35	2300	4100
36	800	7000
37	2200	4500
38	1500	10300
39	2700	8800
40	2500	4700
41	2600	4200
42	2900	9300
43	2500	4500
44	2900	9100
45	2600	4400
46	7800	10900
47	2700	6900
48	4000	9900
49	7400	8100
50	800	6900
51	1800	7400
52	2400	9600
53	8200	10700
54	2700	4600
55	8100	9500
56	7900	9500
57	7600	9500
58	9700	1900
59	7400	9800
60	2100	9400
61	4000	0
62	10000	2300
63	9900	2400
64	7300	8500
65	2600	4000
66	1600	10300
67	3300	9400
DEMAND_SECTION
1	0
2	12
3	12
4	10
5	2
6	23
7	15
8	16
9	26
10	12
11	12
12	26
13	10
14	22
15	4
16	16
17	8
18	23
19	2
20	24
21	12
22	24
23	4
24	19
25	21
26	7
27	15
28	14
29	18
30	7
31	20
32	18
33	2
34	21
35	21
36	3
37	5
38	20
39	16
40	25
41	3
42	10
43	18
44	4
45	14
46	6
47	13
48	25
49	17
50	15
51	19
52	21
53	15
54	25
55	7
56	4
57	16
58	24
59	16
60	10
61	15
62	14
63	14
64	2
65	1
66	9
67	3
DEPOT_SECTION
1
-1
EOF
