experiment/data/lkh-res/Vrp-Set-B-n67/Vrp-Set-B-n67-lkh/0.lkh1.log
PARAMETER_FILE = baseline_results/cvrp_lkh/Vrp-Set-B-n67/Vrp-Set-B-n67-lkh/0.lkh1.par
Reading PROBLEM_FILE: "baseline_results/cvrp_lkh/Vrp-Set-B-n67/Vrp-Set-B-n67-lkh/0.lkh1.vrp" ... done
ASCENT_CANDIDATES = 50
BACKBONE_TRIALS = 0
BACKTRACKING = NO
# BWTSP =
# CANDIDATE_FILE =
CANDIDATE_SET_TYPE = ALPHA
# DISTANCE =
DEPOT = 1
# EDGE_FILE =
EXCESS = 0.0149254
EXTERNAL_SALESMEN = 0
EXTRA_CANDIDATES = 0 
EXTRA_CANDIDATE_SET_TYPE = QUADRANT
GAIN23 = NO
GAIN_CRITERION = YES
INITIAL_PERIOD = 100
INITIAL_STEP_SIZE = 1
INITIAL_TOUR_ALGORITHM = WALK
# INITIAL_TOUR_FILE = 
INITIAL_TOUR_FRACTION = 1.000
# INPUT_TOUR_FILE = 
KICK_TYPE = 4
KICKS = 1
# MAX_BREADTH =
MAKESPAN = NO
MAX_CANDIDATES = 5 
MAX_SWAPS = 0
MAX_TRIALS = 10000
# MERGE_TOUR_FILE =
MOVE_TYPE = 5 SPECIAL
MTSP_MIN_SIZE = 1
MTSP_MAX_SIZE = 66
# MTSP_SOLUTION_FILE = 
# NONSEQUENTIAL_MOVE_TYPE = 5
# OPTIMUM =
OUTPUT_TOUR_FILE = baseline_results/cvrp_lkh/Vrp-Set-B-n67/Vrp-Set-B-n67-lkh/0.lkh1.tour
PATCHING_A = 1 
PATCHING_C = 0 
# PI_FILE = 
POPMUSIC_INITIAL_TOUR = NO
POPMUSIC_MAX_NEIGHBORS = 5
POPMUSIC_SAMPLE_SIZE = 10
POPMUSIC_SOLUTIONS = 50
POPMUSIC_TRIALS = 1
POPULATION_SIZE = 10
PRECISION = 100
PROBLEM_FILE = baseline_results/cvrp_lkh/Vrp-Set-B-n67/Vrp-Set-B-n67-lkh/0.lkh1.vrp
RECOMBINATION = IPT
RESTRICTED_SEARCH = YES
RUNS = 1
SALESMEN = 10
SCALE = 1
SEED = 1234
# SINTEF_SOLUTION_FILE = 
STOP_AT_OPTIMUM = YES
SUBGRADIENT = YES
# SUBPROBLEM_SIZE =
# SUBPROBLEM_TOUR_FILE = 
SUBSEQUENT_MOVE_TYPE = 5 SPECIAL
SUBSEQUENT_PATCHING = YES
# TIME_LIMIT =
# TOTAL_TIME_LIMIT =
# TOUR_FILE = 
TRACE_LEVEL = 1
VEHICLES = 10

Lower bound = 73747.7, Ascent time = 0.01 sec.
Cand.min = 5, Cand.avg = 5.0, Cand.max = 5
Preprocessing time = 0.01 sec.
* 1: Cost = 0_108603, Time = 0.01 sec. 
Writing OUTPUT_TOUR_FILE: "baseline_results/cvrp_lkh/Vrp-Set-B-n67/Vrp-Set-B-n67-lkh/0.lkh1.tour" ... done
* 5: Cost = 0_108451, Time = 0.01 sec. 
Writing OUTPUT_TOUR_FILE: "baseline_results/cvrp_lkh/Vrp-Set-B-n67/Vrp-Set-B-n67-lkh/0.lkh1.tour" ... done
* 12: Cost = 0_108396, Time = 0.03 sec. 
Writing OUTPUT_TOUR_FILE: "baseline_results/cvrp_lkh/Vrp-Set-B-n67/Vrp-Set-B-n67-lkh/0.lkh1.tour" ... done
* 13: Cost = 0_108392, Time = 0.04 sec. 
Writing OUTPUT_TOUR_FILE: "baseline_results/cvrp_lkh/Vrp-Set-B-n67/Vrp-Set-B-n67-lkh/0.lkh1.tour" ... done
* 16: Cost = 0_108184, Time = 0.05 sec. 
Writing OUTPUT_TOUR_FILE: "baseline_results/cvrp_lkh/Vrp-Set-B-n67/Vrp-Set-B-n67-lkh/0.lkh1.tour" ... done
* 25: Cost = 0_107491, Time = 0.07 sec. 
Writing OUTPUT_TOUR_FILE: "baseline_results/cvrp_lkh/Vrp-Set-B-n67/Vrp-Set-B-n67-lkh/0.lkh1.tour" ... done
* 36: Cost = 0_106273, Time = 0.14 sec. 
Writing OUTPUT_TOUR_FILE: "baseline_results/cvrp_lkh/Vrp-Set-B-n67/Vrp-Set-B-n67-lkh/0.lkh1.tour" ... done
* 51: Cost = 0_105618, Time = 0.19 sec. 
Writing OUTPUT_TOUR_FILE: "baseline_results/cvrp_lkh/Vrp-Set-B-n67/Vrp-Set-B-n67-lkh/0.lkh1.tour" ... done
* 80: Cost = 0_105216, Time = 0.34 sec. 
Writing OUTPUT_TOUR_FILE: "baseline_results/cvrp_lkh/Vrp-Set-B-n67/Vrp-Set-B-n67-lkh/0.lkh1.tour" ... done
* 84: Cost = 0_104870, Time = 0.35 sec. 
Writing OUTPUT_TOUR_FILE: "baseline_results/cvrp_lkh/Vrp-Set-B-n67/Vrp-Set-B-n67-lkh/0.lkh1.tour" ... done
* 90: Cost = 0_104835, Time = 0.37 sec. 
Writing OUTPUT_TOUR_FILE: "baseline_results/cvrp_lkh/Vrp-Set-B-n67/Vrp-Set-B-n67-lkh/0.lkh1.tour" ... done
* 98: Cost = 0_104751, Time = 0.42 sec. 
Writing OUTPUT_TOUR_FILE: "baseline_results/cvrp_lkh/Vrp-Set-B-n67/Vrp-Set-B-n67-lkh/0.lkh1.tour" ... done
* 119: Cost = 0_104663, Time = 0.51 sec. 
Writing OUTPUT_TOUR_FILE: "baseline_results/cvrp_lkh/Vrp-Set-B-n67/Vrp-Set-B-n67-lkh/0.lkh1.tour" ... done
* 204: Cost = 0_104455, Time = 0.79 sec. 
Writing OUTPUT_TOUR_FILE: "baseline_results/cvrp_lkh/Vrp-Set-B-n67/Vrp-Set-B-n67-lkh/0.lkh1.tour" ... done
* 311: Cost = 0_104192, Time = 1.19 sec. 
Writing OUTPUT_TOUR_FILE: "baseline_results/cvrp_lkh/Vrp-Set-B-n67/Vrp-Set-B-n67-lkh/0.lkh1.tour" ... done
* 313: Cost = 0_103943, Time = 1.20 sec. 
Writing OUTPUT_TOUR_FILE: "baseline_results/cvrp_lkh/Vrp-Set-B-n67/Vrp-Set-B-n67-lkh/0.lkh1.tour" ... done
Population:
  1: 0_103943
Run 1: Cost = 0_103943, Time = 31.70 sec. 

Successes/Runs = 0/1 
Cost.min = 103943, Cost.avg = 103943.00, Cost.max = 103943
Gap.min = 0.0000%, Gap.avg = 0.0000%, Gap.max = 0.0000%
Penalty.min = 0, Penalty.avg = 0.00, Penalty.max = 0
Trials.min = 10000, Trials.avg = 10000.0, Trials.max = 10000
Time.min = 31.70 sec., Time.avg = 31.70 sec., Time.max = 31.70 sec.
Time.total = 31.72 sec.
  Size.min = 3, Size.max = 9, Penalty = 0
  Cost.min = 3339, Cost.max = 23782, Cost.sum = 103943
Best CVRP solution:
  Cost = 0_103943

