experiment/data/lkh-res/Vrp-Set-B-n67/Vrp-Set-B-n67-lkh/0.lkh1.tour
NAME : 0.103943.tour
COMMENT : Length = 103943
COMMENT : Found by LKH-3 [Keld Helsgaun] Tue Apr  9 01:02:58 2024
TYPE : TOUR
DIMENSION : 76
TOUR_SECTION
1
18
8
51
12
5
47
73
10
49
22
26
64
69
61
4
58
31
62
63
75
34
48
67
3
27
19
32
74
39
30
9
24
38
66
33
76
6
29
14
68
54
45
41
65
7
35
43
72
15
21
20
36
50
2
37
40
70
13
46
53
23
55
56
16
57
59
71
17
42
52
60
25
11
28
44
-1
EOF
